\ LP format - for model browsing. Use MPS format to capture full model detail.
Maximize
obj:   x[1] + x[12] + x[37] + x[42] + x[53] + x[56] + x[67] + x[87] + x[95]
   + x[106] + x[108] + x[109] + x[118] + x[2] + x[3] + x[13] + x[15]
   + x[20] + x[55] + x[66] + x[75] + x[90] + x[120] + x[16] + x[22] + x[31]
   + x[34] + x[35] + x[57] + x[65] + x[80] + x[83] + x[89] + x[94] + x[115]
   + x[117] + x[4] + x[25] + x[48] + x[68] + x[69] + x[76] + x[77] + x[85]
   + x[93] + x[5] + x[23] + x[27] + x[28] + x[33] + x[38] + x[74] + x[84]
   + x[97] + x[6] + x[14] + x[70] + x[78] + x[104] + x[105] + x[114]
   + x[125] + x[7] + x[30] + x[58] + x[81] + x[86] + x[8] + x[40] + x[44]
   + x[110] + x[113] + x[121] + x[9] + x[26] + x[32] + x[46] + x[64]
   + x[88] + x[116] + x[124] + x[10] + x[29] + x[54] + x[71] + x[11]
   + x[51] + x[59] + x[112] + x[43] + x[92] + x[102] + x[63] + x[73]
   + x[79] + x[96] + x[119] + x[21] + x[72] + x[101] + x[103] + x[17]
   + x[50] + x[60] + x[111] + x[18] + x[52] + x[62] + x[19] + x[61] + x[91]
   + x[100] + x[107] + x[24] + x[41] + x[98] + x[82] + x[36] + x[122]
   + x[99] + x[39] + x[49] + x[123] + x[45] + x[47]
Subject To
 edge1: x[1] + x[12] <= 1
 edge2: x[1] + x[37] <= 1
 edge3: x[1] + x[42] <= 1
 edge4: x[1] + x[53] <= 1
 edge5: x[1] + x[56] <= 1
 edge6: x[1] + x[67] <= 1
 edge7: x[1] + x[87] <= 1
 edge8: x[1] + x[95] <= 1
 edge9: x[1] + x[106] <= 1
 edge10: x[1] + x[108] <= 1
 edge11: x[1] + x[109] <= 1
 edge12: x[1] + x[118] <= 1
 edge13: x[12] + x[8] <= 1
 edge14: x[12] + x[9] <= 1
 edge15: x[12] + x[15] <= 1
 edge16: x[12] + x[33] <= 1
 edge17: x[12] + x[43] <= 1
 edge18: x[12] + x[68] <= 1
 edge19: x[12] + x[76] <= 1
 edge20: x[12] + x[78] <= 1
 edge21: x[12] + x[84] <= 1
 edge22: x[12] + x[88] <= 1
 edge23: x[12] + x[89] <= 1
 edge24: x[12] + x[92] <= 1
 edge25: x[12] + x[102] <= 1
 edge26: x[12] + x[104] <= 1
 edge27: x[12] + x[114] <= 1
 edge28: x[37] + x[22] <= 1
 edge29: x[37] + x[26] <= 1
 edge30: x[37] + x[40] <= 1
 edge31: x[37] + x[41] <= 1
 edge32: x[37] + x[43] <= 1
 edge33: x[37] + x[48] <= 1
 edge34: x[37] + x[75] <= 1
 edge35: x[37] + x[88] <= 1
 edge36: x[37] + x[95] <= 1
 edge37: x[37] + x[98] <= 1
 edge38: x[37] + x[103] <= 1
 edge39: x[37] + x[110] <= 1
 edge40: x[42] + x[3] <= 1
 edge41: x[42] + x[14] <= 1
 edge42: x[42] + x[17] <= 1
 edge43: x[42] + x[25] <= 1
 edge44: x[42] + x[34] <= 1
 edge45: x[42] + x[46] <= 1
 edge46: x[42] + x[51] <= 1
 edge47: x[42] + x[61] <= 1
 edge48: x[42] + x[63] <= 1
 edge49: x[42] + x[81] <= 1
 edge50: x[42] + x[82] <= 1
 edge51: x[42] + x[83] <= 1
 edge52: x[42] + x[107] <= 1
 edge53: x[42] + x[113] <= 1
 edge54: x[42] + x[115] <= 1
 edge55: x[42] + x[122] <= 1
 edge56: x[42] + x[123] <= 1
 edge57: x[53] + x[2] <= 1
 edge58: x[53] + x[16] <= 1
 edge59: x[53] + x[29] <= 1
 edge60: x[53] + x[44] <= 1
 edge61: x[53] + x[55] <= 1
 edge62: x[53] + x[57] <= 1
 edge63: x[53] + x[76] <= 1
 edge64: x[53] + x[81] <= 1
 edge65: x[53] + x[84] <= 1
 edge66: x[53] + x[91] <= 1
 edge67: x[53] + x[121] <= 1
 edge68: x[53] + x[122] <= 1
 edge69: x[56] + x[2] <= 1
 edge70: x[56] + x[3] <= 1
 edge71: x[56] + x[17] <= 1
 edge72: x[56] + x[26] <= 1
 edge73: x[56] + x[36] <= 1
 edge74: x[56] + x[39] <= 1
 edge75: x[56] + x[44] <= 1
 edge76: x[56] + x[55] <= 1
 edge77: x[56] + x[66] <= 1
 edge78: x[56] + x[84] <= 1
 edge79: x[56] + x[93] <= 1
 edge80: x[56] + x[106] <= 1
 edge81: x[56] + x[113] <= 1
 edge82: x[67] + x[15] <= 1
 edge83: x[67] + x[32] <= 1
 edge84: x[67] + x[87] <= 1
 edge85: x[67] + x[94] <= 1
 edge86: x[67] + x[107] <= 1
 edge87: x[67] + x[115] <= 1
 edge88: x[67] + x[124] <= 1
 edge89: x[87] + x[14] <= 1
 edge90: x[87] + x[31] <= 1
 edge91: x[87] + x[49] <= 1
 edge92: x[87] + x[55] <= 1
 edge93: x[87] + x[81] <= 1
 edge94: x[87] + x[88] <= 1
 edge95: x[87] + x[92] <= 1
 edge96: x[87] + x[93] <= 1
 edge97: x[87] + x[96] <= 1
 edge98: x[87] + x[103] <= 1
 edge99: x[87] + x[116] <= 1
 edge100: x[87] + x[124] <= 1
 edge101: x[95] + x[5] <= 1
 edge102: x[95] + x[10] <= 1
 edge103: x[95] + x[23] <= 1
 edge104: x[95] + x[26] <= 1
 edge105: x[95] + x[48] <= 1
 edge106: x[95] + x[51] <= 1
 edge107: x[95] + x[55] <= 1
 edge108: x[95] + x[61] <= 1
 edge109: x[95] + x[63] <= 1
 edge110: x[95] + x[66] <= 1
 edge111: x[95] + x[73] <= 1
 edge112: x[95] + x[98] <= 1
 edge113: x[95] + x[99] <= 1
 edge114: x[95] + x[119] <= 1
 edge115: x[95] + x[122] <= 1
 edge116: x[95] + x[125] <= 1
 edge117: x[106] + x[14] <= 1
 edge118: x[106] + x[19] <= 1
 edge119: x[106] + x[22] <= 1
 edge120: x[106] + x[29] <= 1
 edge121: x[106] + x[39] <= 1
 edge122: x[106] + x[68] <= 1
 edge123: x[106] + x[83] <= 1
 edge124: x[106] + x[94] <= 1
 edge125: x[106] + x[103] <= 1
 edge126: x[106] + x[121] <= 1
 edge127: x[106] + x[122] <= 1
 edge128: x[108] + x[3] <= 1
 edge129: x[108] + x[5] <= 1
 edge130: x[108] + x[7] <= 1
 edge131: x[108] + x[9] <= 1
 edge132: x[108] + x[13] <= 1
 edge133: x[108] + x[14] <= 1
 edge134: x[108] + x[20] <= 1
 edge135: x[108] + x[28] <= 1
 edge136: x[108] + x[30] <= 1
 edge137: x[108] + x[32] <= 1
 edge138: x[108] + x[33] <= 1
 edge139: x[108] + x[38] <= 1
 edge140: x[108] + x[41] <= 1
 edge141: x[108] + x[58] <= 1
 edge142: x[108] + x[66] <= 1
 edge143: x[108] + x[73] <= 1
 edge144: x[108] + x[75] <= 1
 edge145: x[108] + x[79] <= 1
 edge146: x[108] + x[94] <= 1
 edge147: x[108] + x[115] <= 1
 edge148: x[109] + x[15] <= 1
 edge149: x[109] + x[36] <= 1
 edge150: x[109] + x[44] <= 1
 edge151: x[109] + x[48] <= 1
 edge152: x[109] + x[49] <= 1
 edge153: x[109] + x[85] <= 1
 edge154: x[109] + x[93] <= 1
 edge155: x[109] + x[96] <= 1
 edge156: x[109] + x[99] <= 1
 edge157: x[109] + x[103] <= 1
 edge158: x[109] + x[118] <= 1
 edge159: x[118] + x[10] <= 1
 edge160: x[118] + x[34] <= 1
 edge161: x[118] + x[57] <= 1
 edge162: x[118] + x[75] <= 1
 edge163: x[118] + x[79] <= 1
 edge164: x[118] + x[97] <= 1
 edge165: x[118] + x[100] <= 1
 edge166: x[118] + x[107] <= 1
 edge167: x[118] + x[116] <= 1
 edge168: x[118] + x[117] <= 1
 edge169: x[2] + x[3] <= 1
 edge170: x[2] + x[13] <= 1
 edge171: x[2] + x[15] <= 1
 edge172: x[2] + x[20] <= 1
 edge173: x[2] + x[55] <= 1
 edge174: x[2] + x[66] <= 1
 edge175: x[2] + x[75] <= 1
 edge176: x[2] + x[90] <= 1
 edge177: x[2] + x[120] <= 1
 edge178: x[3] + x[16] <= 1
 edge179: x[3] + x[22] <= 1
 edge180: x[3] + x[31] <= 1
 edge181: x[3] + x[34] <= 1
 edge182: x[3] + x[35] <= 1
 edge183: x[3] + x[57] <= 1
 edge184: x[3] + x[65] <= 1
 edge185: x[3] + x[80] <= 1
 edge186: x[3] + x[83] <= 1
 edge187: x[3] + x[89] <= 1
 edge188: x[3] + x[94] <= 1
 edge189: x[3] + x[115] <= 1
 edge190: x[3] + x[117] <= 1
 edge191: x[13] + x[14] <= 1
 edge192: x[13] + x[48] <= 1
 edge193: x[13] + x[65] <= 1
 edge194: x[13] + x[71] <= 1
 edge195: x[13] + x[78] <= 1
 edge196: x[13] + x[84] <= 1
 edge197: x[13] + x[88] <= 1
 edge198: x[13] + x[102] <= 1
 edge199: x[13] + x[121] <= 1
 edge200: x[13] + x[124] <= 1
 edge201: x[15] + x[6] <= 1
 edge202: x[15] + x[11] <= 1
 edge203: x[15] + x[32] <= 1
 edge204: x[15] + x[38] <= 1
 edge205: x[15] + x[51] <= 1
 edge206: x[15] + x[57] <= 1
 edge207: x[15] + x[71] <= 1
 edge208: x[15] + x[75] <= 1
 edge209: x[15] + x[77] <= 1
 edge210: x[15] + x[79] <= 1
 edge211: x[15] + x[94] <= 1
 edge212: x[15] + x[96] <= 1
 edge213: x[15] + x[119] <= 1
 edge214: x[15] + x[124] <= 1
 edge215: x[20] + x[5] <= 1
 edge216: x[20] + x[10] <= 1
 edge217: x[20] + x[19] <= 1
 edge218: x[20] + x[35] <= 1
 edge219: x[20] + x[70] <= 1
 edge220: x[20] + x[74] <= 1
 edge221: x[20] + x[91] <= 1
 edge222: x[20] + x[94] <= 1
 edge223: x[20] + x[100] <= 1
 edge224: x[20] + x[107] <= 1
 edge225: x[20] + x[113] <= 1
 edge226: x[55] + x[41] <= 1
 edge227: x[55] + x[48] <= 1
 edge228: x[55] + x[63] <= 1
 edge229: x[55] + x[74] <= 1
 edge230: x[55] + x[81] <= 1
 edge231: x[55] + x[83] <= 1
 edge232: x[55] + x[100] <= 1
 edge233: x[55] + x[116] <= 1
 edge234: x[55] + x[119] <= 1
 edge235: x[55] + x[120] <= 1
 edge236: x[66] + x[21] <= 1
 edge237: x[66] + x[61] <= 1
 edge238: x[66] + x[74] <= 1
 edge239: x[66] + x[90] <= 1
 edge240: x[66] + x[92] <= 1
 edge241: x[66] + x[97] <= 1
 edge242: x[66] + x[100] <= 1
 edge243: x[66] + x[115] <= 1
 edge244: x[66] + x[123] <= 1
 edge245: x[75] + x[32] <= 1
 edge246: x[75] + x[34] <= 1
 edge247: x[75] + x[36] <= 1
 edge248: x[75] + x[40] <= 1
 edge249: x[75] + x[59] <= 1
 edge250: x[75] + x[71] <= 1
 edge251: x[75] + x[72] <= 1
 edge252: x[75] + x[76] <= 1
 edge253: x[75] + x[79] <= 1
 edge254: x[75] + x[81] <= 1
 edge255: x[75] + x[90] <= 1
 edge256: x[75] + x[97] <= 1
 edge257: x[75] + x[103] <= 1
 edge258: x[75] + x[112] <= 1
 edge259: x[75] + x[113] <= 1
 edge260: x[90] + x[35] <= 1
 edge261: x[90] + x[36] <= 1
 edge262: x[90] + x[44] <= 1
 edge263: x[90] + x[58] <= 1
 edge264: x[90] + x[63] <= 1
 edge265: x[90] + x[73] <= 1
 edge266: x[90] + x[77] <= 1
 edge267: x[90] + x[78] <= 1
 edge268: x[90] + x[84] <= 1
 edge269: x[90] + x[91] <= 1
 edge270: x[90] + x[93] <= 1
 edge271: x[90] + x[97] <= 1
 edge272: x[90] + x[105] <= 1
 edge273: x[90] + x[110] <= 1
 edge274: x[90] + x[116] <= 1
 edge275: x[90] + x[122] <= 1
 edge276: x[120] + x[24] <= 1
 edge277: x[120] + x[32] <= 1
 edge278: x[120] + x[35] <= 1
 edge279: x[120] + x[51] <= 1
 edge280: x[120] + x[61] <= 1
 edge281: x[120] + x[68] <= 1
 edge282: x[120] + x[77] <= 1
 edge283: x[120] + x[86] <= 1
 edge284: x[120] + x[88] <= 1
 edge285: x[120] + x[91] <= 1
 edge286: x[120] + x[92] <= 1
 edge287: x[120] + x[102] <= 1
 edge288: x[16] + x[21] <= 1
 edge289: x[16] + x[23] <= 1
 edge290: x[16] + x[25] <= 1
 edge291: x[16] + x[29] <= 1
 edge292: x[16] + x[40] <= 1
 edge293: x[16] + x[44] <= 1
 edge294: x[16] + x[64] <= 1
 edge295: x[16] + x[68] <= 1
 edge296: x[16] + x[72] <= 1
 edge297: x[16] + x[74] <= 1
 edge298: x[16] + x[76] <= 1
 edge299: x[16] + x[80] <= 1
 edge300: x[16] + x[89] <= 1
 edge301: x[16] + x[101] <= 1
 edge302: x[16] + x[103] <= 1
 edge303: x[16] + x[112] <= 1
 edge304: x[22] + x[4] <= 1
 edge305: x[22] + x[5] <= 1
 edge306: x[22] + x[23] <= 1
 edge307: x[22] + x[31] <= 1
 edge308: x[22] + x[61] <= 1
 edge309: x[22] + x[91] <= 1
 edge310: x[22] + x[121] <= 1
 edge311: x[31] + x[4] <= 1
 edge312: x[31] + x[6] <= 1
 edge313: x[31] + x[27] <= 1
 edge314: x[31] + x[28] <= 1
 edge315: x[31] + x[73] <= 1
 edge316: x[31] + x[76] <= 1
 edge317: x[31] + x[89] <= 1
 edge318: x[31] + x[94] <= 1
 edge319: x[31] + x[111] <= 1
 edge320: x[34] + x[4] <= 1
 edge321: x[34] + x[10] <= 1
 edge322: x[34] + x[32] <= 1
 edge323: x[34] + x[58] <= 1
 edge324: x[34] + x[62] <= 1
 edge325: x[34] + x[64] <= 1
 edge326: x[35] + x[14] <= 1
 edge327: x[35] + x[25] <= 1
 edge328: x[35] + x[61] <= 1
 edge329: x[35] + x[76] <= 1
 edge330: x[35] + x[79] <= 1
 edge331: x[35] + x[81] <= 1
 edge332: x[35] + x[94] <= 1
 edge333: x[35] + x[115] <= 1
 edge334: x[57] + x[18] <= 1
 edge335: x[57] + x[21] <= 1
 edge336: x[57] + x[27] <= 1
 edge337: x[57] + x[44] <= 1
 edge338: x[57] + x[48] <= 1
 edge339: x[57] + x[49] <= 1
 edge340: x[57] + x[74] <= 1
 edge341: x[57] + x[103] <= 1
 edge342: x[65] + x[6] <= 1
 edge343: x[65] + x[18] <= 1
 edge344: x[65] + x[43] <= 1
 edge345: x[65] + x[59] <= 1
 edge346: x[65] + x[72] <= 1
 edge347: x[65] + x[81] <= 1
 edge348: x[65] + x[111] <= 1
 edge349: x[65] + x[121] <= 1
 edge350: x[80] + x[58] <= 1
 edge351: x[80] + x[61] <= 1
 edge352: x[80] + x[64] <= 1
 edge353: x[80] + x[76] <= 1
 edge354: x[80] + x[92] <= 1
 edge355: x[83] + x[4] <= 1
 edge356: x[83] + x[6] <= 1
 edge357: x[83] + x[10] <= 1
 edge358: x[83] + x[17] <= 1
 edge359: x[83] + x[19] <= 1
 edge360: x[83] + x[24] <= 1
 edge361: x[83] + x[26] <= 1
 edge362: x[83] + x[46] <= 1
 edge363: x[83] + x[47] <= 1
 edge364: x[83] + x[61] <= 1
 edge365: x[83] + x[69] <= 1
 edge366: x[83] + x[76] <= 1
 edge367: x[83] + x[86] <= 1
 edge368: x[83] + x[91] <= 1
 edge369: x[83] + x[100] <= 1
 edge370: x[83] + x[103] <= 1
 edge371: x[83] + x[113] <= 1
 edge372: x[83] + x[125] <= 1
 edge373: x[89] + x[14] <= 1
 edge374: x[89] + x[33] <= 1
 edge375: x[89] + x[50] <= 1
 edge376: x[89] + x[51] <= 1
 edge377: x[89] + x[68] <= 1
 edge378: x[89] + x[76] <= 1
 edge379: x[89] + x[82] <= 1
 edge380: x[89] + x[85] <= 1
 edge381: x[89] + x[96] <= 1
 edge382: x[89] + x[112] <= 1
 edge383: x[89] + x[121] <= 1
 edge384: x[94] + x[33] <= 1
 edge385: x[94] + x[45] <= 1
 edge386: x[94] + x[54] <= 1
 edge387: x[94] + x[69] <= 1
 edge388: x[94] + x[70] <= 1
 edge389: x[94] + x[82] <= 1
 edge390: x[94] + x[96] <= 1
 edge391: x[94] + x[97] <= 1
 edge392: x[94] + x[115] <= 1
 edge393: x[94] + x[123] <= 1
 edge394: x[115] + x[33] <= 1
 edge395: x[115] + x[63] <= 1
 edge396: x[115] + x[64] <= 1
 edge397: x[115] + x[96] <= 1
 edge398: x[115] + x[119] <= 1
 edge399: x[117] + x[32] <= 1
 edge400: x[117] + x[39] <= 1
 edge401: x[117] + x[62] <= 1
 edge402: x[117] + x[73] <= 1
 edge403: x[117] + x[76] <= 1
 edge404: x[117] + x[86] <= 1
 edge405: x[117] + x[97] <= 1
 edge406: x[117] + x[105] <= 1
 edge407: x[117] + x[113] <= 1
 edge408: x[117] + x[119] <= 1
 edge409: x[4] + x[25] <= 1
 edge410: x[4] + x[48] <= 1
 edge411: x[4] + x[68] <= 1
 edge412: x[4] + x[69] <= 1
 edge413: x[4] + x[76] <= 1
 edge414: x[4] + x[77] <= 1
 edge415: x[4] + x[85] <= 1
 edge416: x[4] + x[93] <= 1
 edge417: x[25] + x[21] <= 1
 edge418: x[25] + x[23] <= 1
 edge419: x[25] + x[28] <= 1
 edge420: x[25] + x[38] <= 1
 edge421: x[25] + x[63] <= 1
 edge422: x[25] + x[64] <= 1
 edge423: x[25] + x[78] <= 1
 edge424: x[48] + x[28] <= 1
 edge425: x[48] + x[51] <= 1
 edge426: x[48] + x[52] <= 1
 edge427: x[48] + x[103] <= 1
 edge428: x[68] + x[17] <= 1
 edge429: x[68] + x[30] <= 1
 edge430: x[68] + x[32] <= 1
 edge431: x[68] + x[62] <= 1
 edge432: x[68] + x[73] <= 1
 edge433: x[68] + x[78] <= 1
 edge434: x[68] + x[81] <= 1
 edge435: x[68] + x[88] <= 1
 edge436: x[68] + x[105] <= 1
 edge437: x[68] + x[113] <= 1
 edge438: x[69] + x[9] <= 1
 edge439: x[69] + x[23] <= 1
 edge440: x[69] + x[49] <= 1
 edge441: x[69] + x[51] <= 1
 edge442: x[69] + x[85] <= 1
 edge443: x[69] + x[100] <= 1
 edge444: x[69] + x[103] <= 1
 edge445: x[69] + x[116] <= 1
 edge446: x[69] + x[121] <= 1
 edge447: x[76] + x[28] <= 1
 edge448: x[76] + x[29] <= 1
 edge449: x[76] + x[38] <= 1
 edge450: x[76] + x[39] <= 1
 edge451: x[76] + x[45] <= 1
 edge452: x[76] + x[50] <= 1
 edge453: x[76] + x[72] <= 1
 edge454: x[76] + x[110] <= 1
 edge455: x[76] + x[119] <= 1
 edge456: x[77] + x[33] <= 1
 edge457: x[77] + x[39] <= 1
 edge458: x[77] + x[63] <= 1
 edge459: x[77] + x[100] <= 1
 edge460: x[77] + x[105] <= 1
 edge461: x[77] + x[107] <= 1
 edge462: x[85] + x[21] <= 1
 edge463: x[85] + x[28] <= 1
 edge464: x[85] + x[36] <= 1
 edge465: x[85] + x[40] <= 1
 edge466: x[85] + x[64] <= 1
 edge467: x[85] + x[112] <= 1
 edge468: x[85] + x[124] <= 1
 edge469: x[93] + x[14] <= 1
 edge470: x[93] + x[27] <= 1
 edge471: x[93] + x[43] <= 1
 edge472: x[93] + x[45] <= 1
 edge473: x[93] + x[50] <= 1
 edge474: x[93] + x[62] <= 1
 edge475: x[93] + x[64] <= 1
 edge476: x[93] + x[73] <= 1
 edge477: x[93] + x[116] <= 1
 edge478: x[5] + x[23] <= 1
 edge479: x[5] + x[27] <= 1
 edge480: x[5] + x[28] <= 1
 edge481: x[5] + x[33] <= 1
 edge482: x[5] + x[38] <= 1
 edge483: x[5] + x[74] <= 1
 edge484: x[5] + x[84] <= 1
 edge485: x[5] + x[97] <= 1
 edge486: x[23] + x[32] <= 1
 edge487: x[23] + x[41] <= 1
 edge488: x[23] + x[50] <= 1
 edge489: x[23] + x[70] <= 1
 edge490: x[23] + x[100] <= 1
 edge491: x[23] + x[102] <= 1
 edge492: x[23] + x[107] <= 1
 edge493: x[27] + x[18] <= 1
 edge494: x[27] + x[21] <= 1
 edge495: x[27] + x[26] <= 1
 edge496: x[27] + x[44] <= 1
 edge497: x[27] + x[50] <= 1
 edge498: x[27] + x[62] <= 1
 edge499: x[27] + x[74] <= 1
 edge500: x[27] + x[116] <= 1
 edge501: x[27] + x[125] <= 1
 edge502: x[28] + x[14] <= 1
 edge503: x[28] + x[38] <= 1
 edge504: x[28] + x[64] <= 1
 edge505: x[28] + x[72] <= 1
 edge506: x[28] + x[79] <= 1
 edge507: x[28] + x[96] <= 1
 edge508: x[28] + x[112] <= 1
 edge509: x[33] + x[10] <= 1
 edge510: x[33] + x[17] <= 1
 edge511: x[33] + x[36] <= 1
 edge512: x[33] + x[71] <= 1
 edge513: x[33] + x[86] <= 1
 edge514: x[33] + x[91] <= 1
 edge515: x[33] + x[107] <= 1
 edge516: x[33] + x[116] <= 1
 edge517: x[33] + x[124] <= 1
 edge518: x[38] + x[21] <= 1
 edge519: x[38] + x[46] <= 1
 edge520: x[38] + x[51] <= 1
 edge521: x[38] + x[98] <= 1
 edge522: x[38] + x[99] <= 1
 edge523: x[38] + x[104] <= 1
 edge524: x[38] + x[105] <= 1
 edge525: x[38] + x[112] <= 1
 edge526: x[38] + x[113] <= 1
 edge527: x[74] + x[9] <= 1
 edge528: x[74] + x[40] <= 1
 edge529: x[74] + x[51] <= 1
 edge530: x[74] + x[63] <= 1
 edge531: x[84] + x[39] <= 1
 edge532: x[84] + x[47] <= 1
 edge533: x[84] + x[64] <= 1
 edge534: x[84] + x[70] <= 1
 edge535: x[84] + x[81] <= 1
 edge536: x[84] + x[107] <= 1
 edge537: x[84] + x[122] <= 1
 edge538: x[97] + x[11] <= 1
 edge539: x[97] + x[17] <= 1
 edge540: x[97] + x[24] <= 1
 edge541: x[97] + x[26] <= 1
 edge542: x[97] + x[36] <= 1
 edge543: x[97] + x[44] <= 1
 edge544: x[97] + x[52] <= 1
 edge545: x[97] + x[62] <= 1
 edge546: x[97] + x[82] <= 1
 edge547: x[97] + x[92] <= 1
 edge548: x[97] + x[116] <= 1
 edge549: x[6] + x[14] <= 1
 edge550: x[6] + x[70] <= 1
 edge551: x[6] + x[78] <= 1
 edge552: x[6] + x[104] <= 1
 edge553: x[6] + x[105] <= 1
 edge554: x[6] + x[114] <= 1
 edge555: x[6] + x[125] <= 1
 edge556: x[14] + x[7] <= 1
 edge557: x[14] + x[63] <= 1
 edge558: x[14] + x[64] <= 1
 edge559: x[14] + x[71] <= 1
 edge560: x[14] + x[73] <= 1
 edge561: x[70] + x[41] <= 1
 edge562: x[70] + x[43] <= 1
 edge563: x[70] + x[107] <= 1
 edge564: x[70] + x[112] <= 1
 edge565: x[78] + x[7] <= 1
 edge566: x[78] + x[21] <= 1
 edge567: x[78] + x[24] <= 1
 edge568: x[78] + x[29] <= 1
 edge569: x[78] + x[36] <= 1
 edge570: x[78] + x[105] <= 1
 edge571: x[78] + x[112] <= 1
 edge572: x[78] + x[119] <= 1
 edge573: x[78] + x[121] <= 1
 edge574: x[104] + x[18] <= 1
 edge575: x[104] + x[101] <= 1
 edge576: x[104] + x[105] <= 1
 edge577: x[105] + x[36] <= 1
 edge578: x[105] + x[46] <= 1
 edge579: x[105] + x[49] <= 1
 edge580: x[105] + x[58] <= 1
 edge581: x[105] + x[103] <= 1
 edge582: x[105] + x[112] <= 1
 edge583: x[105] + x[122] <= 1
 edge584: x[114] + x[24] <= 1
 edge585: x[114] + x[64] <= 1
 edge586: x[114] + x[81] <= 1
 edge587: x[125] + x[41] <= 1
 edge588: x[125] + x[43] <= 1
 edge589: x[125] + x[51] <= 1
 edge590: x[125] + x[100] <= 1
 edge591: x[7] + x[30] <= 1
 edge592: x[7] + x[58] <= 1
 edge593: x[7] + x[81] <= 1
 edge594: x[7] + x[86] <= 1
 edge595: x[30] + x[17] <= 1
 edge596: x[30] + x[18] <= 1
 edge597: x[30] + x[21] <= 1
 edge598: x[30] + x[44] <= 1
 edge599: x[30] + x[50] <= 1
 edge600: x[30] + x[54] <= 1
 edge601: x[30] + x[71] <= 1
 edge602: x[30] + x[113] <= 1
 edge603: x[58] + x[8] <= 1
 edge604: x[58] + x[50] <= 1
 edge605: x[58] + x[98] <= 1
 edge606: x[58] + x[107] <= 1
 edge607: x[58] + x[122] <= 1
 edge608: x[58] + x[124] <= 1
 edge609: x[81] + x[36] <= 1
 edge610: x[81] + x[45] <= 1
 edge611: x[81] + x[51] <= 1
 edge612: x[81] + x[112] <= 1
 edge613: x[81] + x[124] <= 1
 edge614: x[86] + x[11] <= 1
 edge615: x[86] + x[21] <= 1
 edge616: x[86] + x[64] <= 1
 edge617: x[86] + x[73] <= 1
 edge618: x[86] + x[88] <= 1
 edge619: x[86] + x[123] <= 1
 edge620: x[8] + x[40] <= 1
 edge621: x[8] + x[44] <= 1
 edge622: x[8] + x[110] <= 1
 edge623: x[8] + x[113] <= 1
 edge624: x[8] + x[121] <= 1
 edge625: x[40] + x[73] <= 1
 edge626: x[40] + x[112] <= 1
 edge627: x[44] + x[119] <= 1
 edge628: x[44] + x[124] <= 1
 edge629: x[110] + x[21] <= 1
 edge630: x[110] + x[64] <= 1
 edge631: x[110] + x[102] <= 1
 edge632: x[113] + x[18] <= 1
 edge633: x[113] + x[19] <= 1
 edge634: x[113] + x[26] <= 1
 edge635: x[113] + x[43] <= 1
 edge636: x[113] + x[51] <= 1
 edge637: x[113] + x[64] <= 1
 edge638: x[113] + x[91] <= 1
 edge639: x[113] + x[123] <= 1
 edge640: x[121] + x[10] <= 1
 edge641: x[121] + x[43] <= 1
 edge642: x[121] + x[46] <= 1
 edge643: x[121] + x[88] <= 1
 edge644: x[9] + x[26] <= 1
 edge645: x[9] + x[32] <= 1
 edge646: x[9] + x[46] <= 1
 edge647: x[9] + x[64] <= 1
 edge648: x[9] + x[88] <= 1
 edge649: x[9] + x[116] <= 1
 edge650: x[9] + x[124] <= 1
 edge651: x[26] + x[11] <= 1
 edge652: x[26] + x[52] <= 1
 edge653: x[26] + x[72] <= 1
 edge654: x[26] + x[79] <= 1
 edge655: x[26] + x[98] <= 1
 edge656: x[32] + x[51] <= 1
 edge657: x[32] + x[62] <= 1
 edge658: x[32] + x[63] <= 1
 edge659: x[32] + x[82] <= 1
 edge660: x[46] + x[29] <= 1
 edge661: x[46] + x[47] <= 1
 edge662: x[46] + x[50] <= 1
 edge663: x[46] + x[52] <= 1
 edge664: x[46] + x[99] <= 1
 edge665: x[64] + x[17] <= 1
 edge666: x[64] + x[88] <= 1
 edge667: x[64] + x[100] <= 1
 edge668: x[88] + x[17] <= 1
 edge669: x[88] + x[36] <= 1
 edge670: x[88] + x[50] <= 1
 edge671: x[88] + x[62] <= 1
 edge672: x[88] + x[63] <= 1
 edge673: x[88] + x[71] <= 1
 edge674: x[88] + x[92] <= 1
 edge675: x[88] + x[116] <= 1
 edge676: x[116] + x[17] <= 1
 edge677: x[116] + x[41] <= 1
 edge678: x[116] + x[52] <= 1
 edge679: x[116] + x[61] <= 1
 edge680: x[116] + x[123] <= 1
 edge681: x[124] + x[11] <= 1
 edge682: x[124] + x[19] <= 1
 edge683: x[124] + x[41] <= 1
 edge684: x[124] + x[107] <= 1
 edge685: x[10] + x[29] <= 1
 edge686: x[10] + x[54] <= 1
 edge687: x[10] + x[71] <= 1
 edge688: x[29] + x[73] <= 1
 edge689: x[54] + x[91] <= 1
 edge690: x[54] + x[119] <= 1
 edge691: x[71] + x[21] <= 1
 edge692: x[71] + x[36] <= 1
 edge693: x[71] + x[43] <= 1
 edge694: x[71] + x[52] <= 1
 edge695: x[71] + x[100] <= 1
 edge696: x[71] + x[103] <= 1
 edge697: x[11] + x[51] <= 1
 edge698: x[11] + x[59] <= 1
 edge699: x[11] + x[112] <= 1
 edge700: x[51] + x[36] <= 1
 edge701: x[51] + x[63] <= 1
 edge702: x[51] + x[73] <= 1
 edge703: x[51] + x[102] <= 1
 edge704: x[51] + x[103] <= 1
 edge705: x[59] + x[39] <= 1
 edge706: x[59] + x[49] <= 1
 edge707: x[59] + x[73] <= 1
 edge708: x[59] + x[98] <= 1
 edge709: x[59] + x[100] <= 1
 edge710: x[59] + x[107] <= 1
 edge711: x[59] + x[122] <= 1
 edge712: x[112] + x[45] <= 1
 edge713: x[112] + x[62] <= 1
 edge714: x[112] + x[101] <= 1
 edge715: x[43] + x[17] <= 1
 edge716: x[43] + x[73] <= 1
 edge717: x[43] + x[92] <= 1
 edge718: x[43] + x[119] <= 1
 edge719: x[92] + x[52] <= 1
 edge720: x[92] + x[60] <= 1
 edge721: x[102] + x[17] <= 1
 edge722: x[102] + x[18] <= 1
 edge723: x[102] + x[21] <= 1
 edge724: x[102] + x[41] <= 1
 edge725: x[102] + x[50] <= 1
 edge726: x[102] + x[52] <= 1
 edge727: x[102] + x[63] <= 1
 edge728: x[102] + x[99] <= 1
 edge729: x[102] + x[123] <= 1
 edge730: x[63] + x[79] <= 1
 edge731: x[63] + x[101] <= 1
 edge732: x[73] + x[36] <= 1
 edge733: x[73] + x[79] <= 1
 edge734: x[73] + x[82] <= 1
 edge735: x[73] + x[96] <= 1
 edge736: x[73] + x[122] <= 1
 edge737: x[79] + x[36] <= 1
 edge738: x[79] + x[50] <= 1
 edge739: x[79] + x[61] <= 1
 edge740: x[96] + x[100] <= 1
 edge741: x[96] + x[101] <= 1
 edge742: x[96] + x[119] <= 1
 edge743: x[21] + x[24] <= 1
 edge744: x[21] + x[62] <= 1
 edge745: x[72] + x[17] <= 1
 edge746: x[72] + x[52] <= 1
 edge747: x[72] + x[101] <= 1
 edge748: x[72] + x[103] <= 1
 edge749: x[72] + x[122] <= 1
 edge750: x[72] + x[123] <= 1
 edge751: x[101] + x[50] <= 1
 edge752: x[103] + x[36] <= 1
 edge753: x[103] + x[47] <= 1
 edge754: x[17] + x[50] <= 1
 edge755: x[17] + x[60] <= 1
 edge756: x[17] + x[111] <= 1
 edge757: x[50] + x[36] <= 1
 edge758: x[50] + x[82] <= 1
 edge759: x[50] + x[107] <= 1
 edge760: x[60] + x[19] <= 1
 edge761: x[60] + x[36] <= 1
 edge762: x[60] + x[98] <= 1
 edge763: x[111] + x[24] <= 1
 edge764: x[111] + x[41] <= 1
 edge765: x[111] + x[45] <= 1
 edge766: x[18] + x[52] <= 1
 edge767: x[18] + x[62] <= 1
 edge768: x[52] + x[61] <= 1
 edge769: x[62] + x[24] <= 1
 edge770: x[62] + x[47] <= 1
 edge771: x[19] + x[61] <= 1
 edge772: x[61] + x[36] <= 1
 edge773: x[61] + x[47] <= 1
 edge774: x[91] + x[24] <= 1
 edge775: x[91] + x[36] <= 1
 edge776: x[91] + x[123] <= 1
 edge777: x[100] + x[36] <= 1
 edge778: x[100] + x[47] <= 1
 edge779: x[100] + x[49] <= 1
 edge780: x[41] + x[49] <= 1
 edge781: x[98] + x[123] <= 1
 edge782: x[82] + x[39] <= 1
 edge783: x[82] + x[47] <= 1
 edge784: x[82] + x[99] <= 1
 edge785: x[36] + x[122] <= 1
 edge786: x[122] + x[39] <= 1
 edge787: x[99] + x[47] <= 1
Bounds
Binaries
 x[1] x[12] x[37] x[42] x[53] x[56] x[67] x[87] x[95] x[106] x[108] x[109]
 x[118] x[2] x[3] x[13] x[15] x[20] x[55] x[66] x[75] x[90] x[120] x[16]
 x[22] x[31] x[34] x[35] x[57] x[65] x[80] x[83] x[89] x[94] x[115] x[117]
 x[4] x[25] x[48] x[68] x[69] x[76] x[77] x[85] x[93] x[5] x[23] x[27]
 x[28] x[33] x[38] x[74] x[84] x[97] x[6] x[14] x[70] x[78] x[104] x[105]
 x[114] x[125] x[7] x[30] x[58] x[81] x[86] x[8] x[40] x[44] x[110] x[113]
 x[121] x[9] x[26] x[32] x[46] x[64] x[88] x[116] x[124] x[10] x[29] x[54]
 x[71] x[11] x[51] x[59] x[112] x[43] x[92] x[102] x[63] x[73] x[79] x[96]
 x[119] x[21] x[72] x[101] x[103] x[17] x[50] x[60] x[111] x[18] x[52]
 x[62] x[19] x[61] x[91] x[100] x[107] x[24] x[41] x[98] x[82] x[36] x[122]
 x[99] x[39] x[49] x[123] x[45] x[47]
End
